decision_x1=[0,7];
decision_x2=[0,7];
decision_x3=[0,7];
decision_x4=[0,7];
decision_x5=[0,7];
decision_x6=[0,7];
decision_x7=[0,7];
decision_x8=[0,7];
decision_x9=[0,7];
decision_x10=[0,7];
decision_x11=[0,7];
decision_x12=[0,7];
decision_x13=[0,7];
decision_x14=[0,7];
decision_x15=[0,7];
decision_x16=[0,7];
decision_x17=[0,7];
decision_x18=[0,7];
random_y1=[0,7];
random_y2=[0,7];
random_y3=[0,7];
random_y4=[0,7];
random_y5=[0,7];
random_y6=[0,7];
random_y7=[0,7];
random_y8=[0,7];
constraint_x2_x1=[
0,0,6.4|
0,1,8.8|
0,2,1.9|
0,3,9.5|
0,4,4.9|
0,5,5.5|
0,6,7.1|
0,7,7.6|
1,0,0.93|
1,1,8.9|
1,2,5.1|
1,3,0.0059|
1,4,0.84|
1,5,4.1|
1,6,5.2|
1,7,5.9|
2,0,8.9|
2,1,2|
2,2,2.1|
2,3,7.6|
2,4,6.9|
2,5,3.5|
2,6,1.4|
2,7,4.9|
3,0,0.6|
3,1,9.8|
3,2,0.27|
3,3,3.4|
3,4,0.89|
3,5,8.1|
3,6,0.29|
3,7,0.67|
4,0,4.9|
4,1,9.1|
4,2,5.1|
4,3,3.1|
4,4,9.2|
4,5,8.7|
4,6,9.5|
4,7,5|
5,0,4.5|
5,1,0.73|
5,2,1.2|
5,3,3.2|
5,4,8.5|
5,5,3.1|
5,6,5.1|
5,7,5.8|
6,0,0.32|
6,1,0.98|
6,2,7|
6,3,8.6|
6,4,1.8|
6,5,1.9|
6,6,7.5|
6,7,8.2|
7,0,7|
7,1,0.56|
7,2,7.8|
7,3,4.1|
7,4,5|
7,5,7.7|
7,6,2.9|
7,7,3.1|
];
constraint_x3_x2=[
0,0,8|
0,1,2.7|
0,2,2.1|
0,3,4.6|
0,4,3.4|
0,5,8.7|
0,6,3.7|
0,7,3.7|
1,0,1.3|
1,1,2.5|
1,2,0.041|
1,3,9|
1,4,9.4|
1,5,4.7|
1,6,4.5|
1,7,7|
2,0,9.6|
2,1,7.6|
2,2,1.6|
2,3,2.1|
2,4,2.1|
2,5,6.7|
2,6,7|
2,7,6.8|
3,0,8.9|
3,1,3.1|
3,2,3.4|
3,3,6.4|
3,4,9.1|
3,5,7|
3,6,7.8|
3,7,0.69|
4,0,4.3|
4,1,6.8|
4,2,6.7|
4,3,7.1|
4,4,9.8|
4,5,0.32|
4,6,5.6|
4,7,8.6|
5,0,2.4|
5,1,2.1|
5,2,6|
5,3,4.7|
5,4,9.4|
5,5,9.3|
5,6,7.2|
5,7,3.2|
6,0,8.7|
6,1,0.89|
6,2,9.6|
6,3,5.3|
6,4,5.1|
6,5,3.2|
6,6,5.5|
6,7,4.9|
7,0,0.54|
7,1,2.6|
7,2,2.6|
7,3,5.1|
7,4,2.3|
7,5,0.28|
7,6,3.8|
7,7,9.6|
];
constraint_x4_x3=[
0,0,9.2|
0,1,1.4|
0,2,5.5|
0,3,6.9|
0,4,3.8|
0,5,5.5|
0,6,5.8|
0,7,5.5|
1,0,9.2|
1,1,6.6|
1,2,8|
1,3,6.4|
1,4,6.6|
1,5,5.7|
1,6,8.1|
1,7,4.4|
2,0,2.8|
2,1,2.3|
2,2,0.5|
2,3,6.8|
2,4,8.6|
2,5,7.8|
2,6,2.9|
2,7,0.79|
3,0,0.29|
3,1,7.9|
3,2,9.1|
3,3,4.4|
3,4,6.2|
3,5,7.4|
3,6,8.5|
3,7,5.6|
4,0,8.3|
4,1,6.3|
4,2,1.3|
4,3,9.5|
4,4,1.5|
4,5,1.8|
4,6,9|
4,7,1.7|
5,0,6.2|
5,1,4|
5,2,9.7|
5,3,3.4|
5,4,3.9|
5,5,0.32|
5,6,9.6|
5,7,6.6|
6,0,4.6|
6,1,9.1|
6,2,4.2|
6,3,0.36|
6,4,5.6|
6,5,3.6|
6,6,9.2|
6,7,0.044|
7,0,2.8|
7,1,6.5|
7,2,3|
7,3,7.2|
7,4,0.7|
7,5,2.8|
7,6,9.5|
7,7,0.99|
];
constraint_x5_x1=[
0,0,0.24|
0,1,2.1|
0,2,9.7|
0,3,9|
0,4,4.2|
0,5,1.2|
0,6,2.1|
0,7,0.45|
1,0,5.4|
1,1,9.3|
1,2,2.6|
1,3,9.2|
1,4,1.1|
1,5,0.76|
1,6,4.2|
1,7,6.7|
2,0,7.6|
2,1,8.2|
2,2,2.9|
2,3,7.7|
2,4,7.4|
2,5,3.2|
2,6,1.6|
2,7,3.9|
3,0,5.7|
3,1,4.9|
3,2,1.7|
3,3,6.3|
3,4,8.1|
3,5,3|
3,6,4|
3,7,4.7|
4,0,3.7|
4,1,1.7|
4,2,4.1|
4,3,3|
4,4,7.7|
4,5,3.2|
4,6,8.3|
4,7,2.9|
5,0,5.5|
5,1,8.4|
5,2,7|
5,3,5.8|
5,4,0.81|
5,5,1.7|
5,6,8|
5,7,5.5|
6,0,3.2|
6,1,3.4|
6,2,1.5|
6,3,2.2|
6,4,5.2|
6,5,3.3|
6,6,7.8|
6,7,1.4|
7,0,9.6|
7,1,4.9|
7,2,9.9|
7,3,3.3|
7,4,4.1|
7,5,1.6|
7,6,4.1|
7,7,6.1|
];
constraint_x6_x2=[
0,0,9|
0,1,6.7|
0,2,5.4|
0,3,0.24|
0,4,5.8|
0,5,5.8|
0,6,5.5|
0,7,8.7|
1,0,4.5|
1,1,4.5|
1,2,9.9|
1,3,0.58|
1,4,4.5|
1,5,2.9|
1,6,6.4|
1,7,0.14|
2,0,6.9|
2,1,8.7|
2,2,6.8|
2,3,7|
2,4,5.7|
2,5,7.3|
2,6,5.9|
2,7,5.9|
3,0,8.8|
3,1,4.7|
3,2,8.8|
3,3,1.3|
3,4,3.7|
3,5,4.5|
3,6,0.19|
3,7,4.8|
4,0,5.1|
4,1,9.9|
4,2,6.8|
4,3,4.7|
4,4,6.6|
4,5,8|
4,6,0.8|
4,7,4.1|
5,0,1.5|
5,1,8.2|
5,2,7.3|
5,3,6.9|
5,4,0.11|
5,5,9.7|
5,6,9.4|
5,7,7.9|
6,0,8.5|
6,1,4.9|
6,2,0.2|
6,3,3.1|
6,4,2.2|
6,5,7.1|
6,6,2.5|
6,7,5.8|
7,0,0.34|
7,1,5.1|
7,2,9.3|
7,3,9.3|
7,4,9|
7,5,8.5|
7,6,0.87|
7,7,6|
];
constraint_x7_x3=[
0,0,8.5|
0,1,9.5|
0,2,3.4|
0,3,8.4|
0,4,9.7|
0,5,4.9|
0,6,6.3|
0,7,9|
1,0,9.6|
1,1,6.5|
1,2,8.3|
1,3,0.88|
1,4,1.1|
1,5,0.81|
1,6,7.2|
1,7,8.3|
2,0,0.023|
2,1,9.6|
2,2,3.5|
2,3,8.6|
2,4,6.9|
2,5,5.1|
2,6,8.7|
2,7,5.8|
3,0,1.5|
3,1,0.72|
3,2,2.5|
3,3,9.6|
3,4,1|
3,5,2.5|
3,6,6.7|
3,7,8.4|
4,0,0.34|
4,1,8.4|
4,2,9.1|
4,3,5.3|
4,4,2.3|
4,5,9.8|
4,6,9.5|
4,7,1.3|
5,0,9.2|
5,1,6.7|
5,2,7.3|
5,3,2.8|
5,4,0.44|
5,5,0.2|
5,6,2.1|
5,7,9|
6,0,8.8|
6,1,7.9|
6,2,5|
6,3,1.4|
6,4,9|
6,5,9.7|
6,6,9.8|
6,7,1.5|
7,0,4.9|
7,1,0.42|
7,2,5.2|
7,3,0.98|
7,4,6.3|
7,5,6.9|
7,6,1|
7,7,0.97|
];
constraint_x8_x4=[
0,0,9.8|
0,1,2.5|
0,2,0.66|
0,3,4.1|
0,4,0.32|
0,5,6.4|
0,6,0.49|
0,7,0.71|
1,0,7.5|
1,1,0.039|
1,2,5.8|
1,3,5.3|
1,4,2.4|
1,5,4.8|
1,6,8.3|
1,7,6.6|
2,0,2.7|
2,1,4.2|
2,2,6.5|
2,3,2.3|
2,4,3|
2,5,3.4|
2,6,1|
2,7,4.1|
3,0,3.6|
3,1,1.3|
3,2,5.9|
3,3,5.2|
3,4,1.3|
3,5,8.7|
3,6,2.3|
3,7,4.2|
4,0,5.6|
4,1,9.6|
4,2,6.7|
4,3,3|
4,4,8|
4,5,0.0063|
4,6,4.2|
4,7,4.8|
5,0,6.7|
5,1,8.8|
5,2,6.6|
5,3,7.5|
5,4,2.9|
5,5,5.5|
5,6,1.6|
5,7,3.9|
6,0,4.7|
6,1,9.8|
6,2,6.2|
6,3,7.4|
6,4,1.8|
6,5,0.48|
6,6,7.5|
6,7,4.6|
7,0,9.6|
7,1,6.3|
7,2,8.6|
7,3,6.7|
7,4,7.1|
7,5,0.89|
7,6,4.8|
7,7,8.7|
];
constraint_x9_x5=[
0,0,7.7|
0,1,8|
0,2,4|
0,3,7.1|
0,4,9.6|
0,5,9.4|
0,6,3.1|
0,7,5.2|
1,0,7.9|
1,1,0.71|
1,2,8.5|
1,3,1.3|
1,4,7.5|
1,5,8.4|
1,6,7.8|
1,7,9.1|
2,0,7|
2,1,6.3|
2,2,7.6|
2,3,0.84|
2,4,8.5|
2,5,7|
2,6,3.2|
2,7,4|
3,0,7.6|
3,1,5.1|
3,2,7.8|
3,3,1.2|
3,4,7.7|
3,5,7.2|
3,6,6.7|
3,7,2.6|
4,0,7|
4,1,4.4|
4,2,7.9|
4,3,4.3|
4,4,0.03|
4,5,8.9|
4,6,0.037|
4,7,3.4|
5,0,8.7|
5,1,2|
5,2,8|
5,3,9.3|
5,4,9.6|
5,5,7.1|
5,6,0.2|
5,7,7.7|
6,0,3.2|
6,1,7.2|
6,2,0.16|
6,3,6.3|
6,4,1.1|
6,5,9.4|
6,6,3.3|
6,7,4.6|
7,0,9.2|
7,1,0.56|
7,2,5.7|
7,3,4.9|
7,4,7.6|
7,5,6.2|
7,6,8.1|
7,7,4.8|
];
constraint_x10_x6=[
0,0,7.3|
0,1,0.063|
0,2,5.7|
0,3,6.8|
0,4,4.7|
0,5,6.4|
0,6,9.1|
0,7,8.2|
1,0,3.1|
1,1,6.7|
1,2,1.7|
1,3,3.1|
1,4,4.6|
1,5,6.4|
1,6,9.5|
1,7,5.2|
2,0,2.5|
2,1,3.9|
2,2,4.1|
2,3,3.2|
2,4,3.4|
2,5,4.5|
2,6,7.2|
2,7,5.1|
3,0,9|
3,1,7.5|
3,2,0.36|
3,3,0.64|
3,4,8.3|
3,5,3.5|
3,6,8.7|
3,7,5.3|
4,0,8.6|
4,1,4.3|
4,2,9.8|
4,3,6.5|
4,4,7.6|
4,5,7.3|
4,6,1.5|
4,7,6|
5,0,8.6|
5,1,1.8|
5,2,2.5|
5,3,7.3|
5,4,4.5|
5,5,9.2|
5,6,6.9|
5,7,7.2|
6,0,6.5|
6,1,8|
6,2,3.4|
6,3,3.8|
6,4,3.3|
6,5,3.4|
6,6,9.6|
6,7,0.44|
7,0,4|
7,1,8.1|
7,2,2.9|
7,3,7.3|
7,4,8.8|
7,5,8.6|
7,6,5.2|
7,7,2.5|
];
constraint_x11_x7=[
0,0,6.1|
0,1,0.59|
0,2,3.1|
0,3,9.4|
0,4,6.6|
0,5,9.1|
0,6,1.3|
0,7,2.9|
1,0,0.14|
1,1,2.3|
1,2,4.5|
1,3,5.9|
1,4,1.1|
1,5,4.3|
1,6,0.3|
1,7,2.2|
2,0,7.7|
2,1,9.8|
2,2,1.3|
2,3,3.8|
2,4,4.4|
2,5,4.7|
2,6,7.6|
2,7,3.6|
3,0,1.5|
3,1,1.8|
3,2,9.6|
3,3,1.2|
3,4,8.1|
3,5,8.3|
3,6,3.8|
3,7,2.1|
4,0,7.5|
4,1,6.8|
4,2,8.4|
4,3,2.4|
4,4,8.8|
4,5,4.5|
4,6,3.9|
4,7,5.1|
5,0,2.6|
5,1,7.6|
5,2,8.2|
5,3,2.3|
5,4,4.2|
5,5,3.2|
5,6,9.2|
5,7,8.4|
6,0,4.8|
6,1,1.3|
6,2,4.6|
6,3,4.7|
6,4,6.1|
6,5,6.6|
6,6,4.6|
6,7,7.1|
7,0,5.4|
7,1,8.9|
7,2,4.3|
7,3,1.4|
7,4,4.9|
7,5,9.4|
7,6,7.7|
7,7,5.4|
];
constraint_x12_x8=[
0,0,3.2|
0,1,6.3|
0,2,2.9|
0,3,2.4|
0,4,3.9|
0,5,7.9|
0,6,5|
0,7,4.2|
1,0,5.9|
1,1,9.9|
1,2,8.7|
1,3,6.8|
1,4,2|
1,5,7.5|
1,6,8.8|
1,7,6.3|
2,0,8.3|
2,1,2.6|
2,2,2.6|
2,3,0.81|
2,4,2.9|
2,5,7.7|
2,6,9.2|
2,7,8.9|
3,0,0.85|
3,1,7.6|
3,2,3|
3,3,1.7|
3,4,1.5|
3,5,3.4|
3,6,0.43|
3,7,0.16|
4,0,7.7|
4,1,4.4|
4,2,8.9|
4,3,7.9|
4,4,6.2|
4,5,5.1|
4,6,4.4|
4,7,4.3|
5,0,1.2|
5,1,3.9|
5,2,8.8|
5,3,0.68|
5,4,8.8|
5,5,8.7|
5,6,1.5|
5,7,6.9|
6,0,6.9|
6,1,3.1|
6,2,4.8|
6,3,9|
6,4,8.1|
6,5,8.4|
6,6,1.3|
6,7,1.2|
7,0,8.7|
7,1,2|
7,2,8.3|
7,3,3.5|
7,4,6.6|
7,5,4.2|
7,6,1.6|
7,7,9.7|
];
constraint_x13_x9=[
0,0,8.8|
0,1,0.86|
0,2,3|
0,3,1.9|
0,4,9.5|
0,5,4.2|
0,6,8|
0,7,9.8|
1,0,5.9|
1,1,6.7|
1,2,0.18|
1,3,0.32|
1,4,6.8|
1,5,0.65|
1,6,3|
1,7,0.5|
2,0,2.3|
2,1,8.5|
2,2,7|
2,3,5.5|
2,4,4.6|
2,5,4.4|
2,6,1.7|
2,7,9.8|
3,0,8.9|
3,1,10|
3,2,3.4|
3,3,5.4|
3,4,6.7|
3,5,2.7|
3,6,0.77|
3,7,8.5|
4,0,8.4|
4,1,9|
4,2,7.7|
4,3,8.5|
4,4,9.8|
4,5,0.98|
4,6,8.1|
4,7,9.7|
5,0,8.5|
5,1,9.9|
5,2,9.6|
5,3,4|
5,4,3.2|
5,5,4.6|
5,6,2.1|
5,7,7.9|
6,0,0.99|
6,1,7.1|
6,2,9.9|
6,3,5.1|
6,4,5.9|
6,5,2.4|
6,6,5.4|
6,7,2|
7,0,0.15|
7,1,2.1|
7,2,6.7|
7,3,8.8|
7,4,6.2|
7,5,3.8|
7,6,7.3|
7,7,6.5|
];
constraint_x14_x10=[
0,0,1.6|
0,1,6.1|
0,2,9|
0,3,3.7|
0,4,6.5|
0,5,5.5|
0,6,1.2|
0,7,2.5|
1,0,4.8|
1,1,7.2|
1,2,4.1|
1,3,4|
1,4,8.8|
1,5,4.4|
1,6,0.43|
1,7,5|
2,0,6.3|
2,1,1.3|
2,2,2.8|
2,3,4.8|
2,4,4.8|
2,5,2.7|
2,6,2.4|
2,7,9.9|
3,0,4.2|
3,1,7.4|
3,2,3.1|
3,3,1.3|
3,4,8.3|
3,5,1.7|
3,6,6|
3,7,7.1|
4,0,2.9|
4,1,1.7|
4,2,2.6|
4,3,2.9|
4,4,6.7|
4,5,3.6|
4,6,7|
4,7,9.9|
5,0,4.3|
5,1,5.9|
5,2,0.25|
5,3,6.8|
5,4,2.1|
5,5,6.5|
5,6,5.8|
5,7,7.3|
6,0,7.2|
6,1,6.7|
6,2,9|
6,3,6.3|
6,4,8.4|
6,5,1.7|
6,6,9.1|
6,7,9.4|
7,0,6.6|
7,1,9.2|
7,2,9.6|
7,3,4.7|
7,4,9.7|
7,5,1.2|
7,6,6.1|
7,7,8.8|
];
constraint_x15_x11=[
0,0,8.2|
0,1,4.5|
0,2,6|
0,3,9.6|
0,4,4.8|
0,5,6.3|
0,6,7.4|
0,7,1.4|
1,0,6.6|
1,1,6.2|
1,2,2.5|
1,3,0.67|
1,4,3.8|
1,5,7.6|
1,6,6.5|
1,7,8.3|
2,0,4.3|
2,1,4.3|
2,2,1.4|
2,3,0.26|
2,4,4.4|
2,5,5.9|
2,6,4.6|
2,7,4.7|
3,0,3.6|
3,1,5.6|
3,2,3.8|
3,3,4.2|
3,4,7.6|
3,5,3.6|
3,6,7.8|
3,7,10|
4,0,4|
4,1,8.8|
4,2,2|
4,3,8.5|
4,4,4.6|
4,5,1.3|
4,6,2.6|
4,7,1.6|
5,0,2.6|
5,1,2.2|
5,2,3.7|
5,3,0.28|
5,4,6.7|
5,5,8.1|
5,6,4.1|
5,7,4.6|
6,0,5.3|
6,1,5.5|
6,2,1.3|
6,3,3.2|
6,4,9.2|
6,5,1.2|
6,6,6.7|
6,7,0.55|
7,0,4.7|
7,1,3.7|
7,2,9.7|
7,3,2.8|
7,4,4|
7,5,7.6|
7,6,8.4|
7,7,6.5|
];
constraint_x16_x12=[
0,0,5.8|
0,1,3.2|
0,2,9.3|
0,3,0.61|
0,4,2.8|
0,5,8.4|
0,6,4.2|
0,7,4.9|
1,0,8.5|
1,1,5.5|
1,2,4.1|
1,3,9.4|
1,4,7.1|
1,5,2.5|
1,6,0.33|
1,7,7|
2,0,5.5|
2,1,6.1|
2,2,7.2|
2,3,3.8|
2,4,2|
2,5,1.7|
2,6,3.1|
2,7,9.7|
3,0,7.5|
3,1,7.6|
3,2,8.6|
3,3,5.5|
3,4,0.089|
3,5,9.7|
3,6,3|
3,7,5.2|
4,0,2.1|
4,1,7.2|
4,2,3.1|
4,3,0.28|
4,4,0.68|
4,5,3.4|
4,6,6.9|
4,7,9.9|
5,0,1.2|
5,1,0.42|
5,2,3.1|
5,3,6.8|
5,4,6.9|
5,5,6.1|
5,6,5.8|
5,7,4.1|
6,0,5.2|
6,1,6.3|
6,2,7.5|
6,3,1.3|
6,4,7.7|
6,5,5.4|
6,6,8.5|
6,7,2|
7,0,3.3|
7,1,5.5|
7,2,5.8|
7,3,9.5|
7,4,6.5|
7,5,5|
7,6,4.8|
7,7,5.8|
];
constraint_x17_x13=[
0,0,1.8|
0,1,5.8|
0,2,9.2|
0,3,5.1|
0,4,0.19|
0,5,2|
0,6,9.1|
0,7,6|
1,0,0.13|
1,1,5.8|
1,2,0.68|
1,3,3.5|
1,4,1.5|
1,5,6.4|
1,6,5|
1,7,4.2|
2,0,2.5|
2,1,3.1|
2,2,4.9|
2,3,0.33|
2,4,8.9|
2,5,9.8|
2,6,0.44|
2,7,3.4|
3,0,8.9|
3,1,4.4|
3,2,7.7|
3,3,7.4|
3,4,1.1|
3,5,3.4|
3,6,3|
3,7,3|
4,0,9.9|
4,1,6.6|
4,2,8.9|
4,3,6.1|
4,4,7.4|
4,5,6.4|
4,6,8.2|
4,7,8.3|
5,0,8.2|
5,1,8.9|
5,2,8|
5,3,2.4|
5,4,5.7|
5,5,8.2|
5,6,3|
5,7,1.5|
6,0,2.7|
6,1,3.4|
6,2,3.1|
6,3,0.66|
6,4,4.8|
6,5,0.45|
6,6,0.017|
6,7,8.2|
7,0,9.8|
7,1,7.9|
7,2,3|
7,3,6.9|
7,4,8.6|
7,5,3.7|
7,6,7.5|
7,7,0.82|
];
constraint_x18_x14=[
0,0,8.2|
0,1,8.4|
0,2,0.7|
0,3,1.2|
0,4,8.5|
0,5,3.7|
0,6,6.1|
0,7,7.3|
1,0,5|
1,1,0.23|
1,2,5.9|
1,3,0.38|
1,4,1.1|
1,5,2.7|
1,6,9.7|
1,7,3.2|
2,0,3.5|
2,1,2.8|
2,2,5.6|
2,3,4.5|
2,4,8.4|
2,5,7.2|
2,6,6.9|
2,7,3.1|
3,0,5.1|
3,1,1.4|
3,2,6.1|
3,3,2.4|
3,4,2.1|
3,5,4.2|
3,6,4.4|
3,7,6.7|
4,0,4.9|
4,1,4.1|
4,2,4.3|
4,3,4.1|
4,4,1.2|
4,5,7.9|
4,6,8.9|
4,7,7.1|
5,0,9.3|
5,1,4.7|
5,2,7.7|
5,3,3.6|
5,4,6.7|
5,5,1.4|
5,6,0.52|
5,7,9.4|
6,0,6.9|
6,1,4.6|
6,2,8.9|
6,3,8.1|
6,4,2.6|
6,5,9|
6,6,9.9|
6,7,7.4|
7,0,9.3|
7,1,0.36|
7,2,5.6|
7,3,8.1|
7,4,4.7|
7,5,3.3|
7,6,7|
7,7,2.2|
];
constraint_x1_y1=[
0,0,3.3|
0,1,0.55|
0,2,0.24|
0,3,4.2|
0,4,9|
0,5,2.8|
0,6,8|
0,7,5.7|
1,0,9.6|
1,1,7.5|
1,2,5.8|
1,3,5.7|
1,4,1.8|
1,5,0.94|
1,6,9.2|
1,7,2.4|
2,0,5.9|
2,1,5.6|
2,2,9|
2,3,5.4|
2,4,5.1|
2,5,6.3|
2,6,1.5|
2,7,1.6|
3,0,4.9|
3,1,4.8|
3,2,9|
3,3,5.4|
3,4,3.6|
3,5,3.2|
3,6,5.2|
3,7,2.4|
4,0,0.53|
4,1,5.8|
4,2,3.7|
4,3,5.2|
4,4,5.2|
4,5,3.9|
4,6,5.8|
4,7,2.3|
5,0,6.3|
5,1,8.2|
5,2,7.2|
5,3,2.8|
5,4,7.6|
5,5,6|
5,6,1.1|
5,7,0.77|
6,0,6.5|
6,1,0.48|
6,2,3.2|
6,3,0.85|
6,4,9.1|
6,5,3.4|
6,6,0.8|
6,7,7.5|
7,0,9.8|
7,1,9.6|
7,2,0.62|
7,3,6.2|
7,4,3.3|
7,5,8.1|
7,6,4.9|
7,7,6.8|
];
constraint_x2_y2=[
0,0,0.23|
0,1,6.4|
0,2,9.2|
0,3,4.6|
0,4,9.7|
0,5,8|
0,6,6|
0,7,2.7|
1,0,4.5|
1,1,1.7|
1,2,3|
1,3,8.2|
1,4,2.7|
1,5,9.5|
1,6,3.1|
1,7,2.3|
2,0,8|
2,1,8.6|
2,2,0.86|
2,3,7.4|
2,4,2.6|
2,5,4.9|
2,6,7|
2,7,0.57|
3,0,7|
3,1,3.9|
3,2,1.1|
3,3,6.1|
3,4,8.9|
3,5,6.6|
3,6,8.3|
3,7,8.5|
4,0,0.17|
4,1,4.5|
4,2,6.7|
4,3,7.8|
4,4,8.9|
4,5,7.3|
4,6,2.9|
4,7,8.4|
5,0,3.9|
5,1,1.9|
5,2,8.5|
5,3,6.6|
5,4,9.2|
5,5,3|
5,6,8.3|
5,7,6.3|
6,0,7.9|
6,1,8.8|
6,2,0.23|
6,3,6.3|
6,4,0.12|
6,5,1.9|
6,6,4.5|
6,7,8.5|
7,0,6.5|
7,1,0.33|
7,2,5.4|
7,3,0.04|
7,4,7.9|
7,5,9.5|
7,6,1.9|
7,7,6.4|
];
constraint_x3_y3=[
0,0,1.7|
0,1,9.8|
0,2,2|
0,3,7|
0,4,6.7|
0,5,4.6|
0,6,7.4|
0,7,1.2|
1,0,0.23|
1,1,5|
1,2,6.1|
1,3,2.9|
1,4,6.4|
1,5,0.97|
1,6,0.63|
1,7,9.4|
2,0,9.5|
2,1,8.8|
2,2,4.4|
2,3,4.6|
2,4,6.3|
2,5,4.1|
2,6,3.7|
2,7,2.4|
3,0,5.9|
3,1,7|
3,2,0.84|
3,3,7|
3,4,4.9|
3,5,6.8|
3,6,7.4|
3,7,5.2|
4,0,3.1|
4,1,6.5|
4,2,9.5|
4,3,4.5|
4,4,2|
4,5,9.3|
4,6,9.3|
4,7,4|
5,0,9.2|
5,1,1.5|
5,2,8.5|
5,3,3.9|
5,4,6.3|
5,5,4.2|
5,6,9.8|
5,7,6.2|
6,0,7.3|
6,1,7.2|
6,2,2.4|
6,3,5.1|
6,4,3.8|
6,5,2.6|
6,6,0.76|
6,7,1.1|
7,0,9.5|
7,1,1.3|
7,2,3.5|
7,3,1.5|
7,4,2.5|
7,5,2.2|
7,6,8.5|
7,7,3.7|
];
constraint_x4_y4=[
0,0,9.4|
0,1,8.8|
0,2,2.5|
0,3,2|
0,4,4.6|
0,5,1.6|
0,6,1.5|
0,7,7.1|
1,0,7.7|
1,1,3.9|
1,2,8.8|
1,3,9.8|
1,4,2.3|
1,5,7.2|
1,6,3.3|
1,7,5.3|
2,0,8.6|
2,1,5.2|
2,2,8|
2,3,7.5|
2,4,8.6|
2,5,0.49|
2,6,7|
2,7,7.7|
3,0,0.1|
3,1,0.11|
3,2,6.6|
3,3,4.5|
3,4,0.59|
3,5,2.6|
3,6,9.8|
3,7,9.7|
4,0,5.6|
4,1,1.7|
4,2,6|
4,3,0.78|
4,4,9.6|
4,5,8.8|
4,6,5.6|
4,7,1.3|
5,0,3.8|
5,1,1.4|
5,2,9.5|
5,3,6.2|
5,4,6.5|
5,5,4.3|
5,6,9.2|
5,7,1.7|
6,0,7.5|
6,1,0.65|
6,2,3.8|
6,3,4.4|
6,4,7.9|
6,5,5.6|
6,6,3.7|
6,7,2.5|
7,0,4.2|
7,1,9.4|
7,2,7.7|
7,3,6.3|
7,4,1|
7,5,3.6|
7,6,3|
7,7,0.36|
];
constraint_x5_y5=[
0,0,6.3|
0,1,0.93|
0,2,1.6|
0,3,5.3|
0,4,4|
0,5,4.4|
0,6,2.2|
0,7,8.5|
1,0,6.2|
1,1,1.5|
1,2,1.5|
1,3,3.7|
1,4,6.6|
1,5,7.6|
1,6,0.77|
1,7,6.4|
2,0,4.6|
2,1,3.9|
2,2,6.5|
2,3,6|
2,4,4.5|
2,5,5.4|
2,6,5.8|
2,7,2.2|
3,0,6.9|
3,1,3.8|
3,2,5|
3,3,7.7|
3,4,5.2|
3,5,7.7|
3,6,2.4|
3,7,9.3|
4,0,7.8|
4,1,8|
4,2,7.6|
4,3,2.4|
4,4,3.8|
4,5,3.8|
4,6,3.5|
4,7,6.1|
5,0,9.7|
5,1,6.7|
5,2,1.3|
5,3,0.021|
5,4,8|
5,5,2.7|
5,6,0.83|
5,7,8.7|
6,0,6|
6,1,1.4|
6,2,7.9|
6,3,5.6|
6,4,9.7|
6,5,9.9|
6,6,1.5|
6,7,7.5|
7,0,1.1|
7,1,8.8|
7,2,7.3|
7,3,5.5|
7,4,6.1|
7,5,5.3|
7,6,8.8|
7,7,1.1|
];
constraint_x6_y6=[
0,0,9.8|
0,1,0.036|
0,2,5.9|
0,3,8.2|
0,4,6.8|
0,5,0.29|
0,6,6.4|
0,7,6.7|
1,0,0.65|
1,1,0.24|
1,2,5.8|
1,3,5.6|
1,4,7.2|
1,5,8.1|
1,6,1.7|
1,7,0.58|
2,0,0.64|
2,1,0.18|
2,2,3.8|
2,3,5|
2,4,2.5|
2,5,6.3|
2,6,1.9|
2,7,2.5|
3,0,5|
3,1,3.5|
3,2,9.5|
3,3,9.8|
3,4,1.4|
3,5,6.7|
3,6,7.4|
3,7,4|
4,0,6.5|
4,1,4.5|
4,2,4.4|
4,3,6.2|
4,4,4.3|
4,5,2.6|
4,6,7.8|
4,7,5.5|
5,0,9.5|
5,1,8|
5,2,5.2|
5,3,8.8|
5,4,3.8|
5,5,0.052|
5,6,2|
5,7,3.5|
6,0,9.8|
6,1,2.1|
6,2,8.1|
6,3,3.9|
6,4,6|
6,5,9.9|
6,6,9.1|
6,7,2.6|
7,0,5.6|
7,1,3.9|
7,2,4.7|
7,3,2.3|
7,4,8.3|
7,5,3.6|
7,6,1.3|
7,7,8.1|
];
constraint_x7_y7=[
0,0,2.5|
0,1,4.5|
0,2,4.3|
0,3,9|
0,4,9.5|
0,5,9.6|
0,6,2.8|
0,7,6.2|
1,0,1.7|
1,1,0.87|
1,2,9.6|
1,3,3.6|
1,4,9|
1,5,4|
1,6,2.7|
1,7,4.8|
2,0,3|
2,1,4.6|
2,2,2.5|
2,3,9.6|
2,4,0.67|
2,5,0.53|
2,6,8.1|
2,7,2.2|
3,0,4.3|
3,1,0.58|
3,2,8.3|
3,3,6.4|
3,4,9.3|
3,5,3.8|
3,6,2.3|
3,7,0.49|
4,0,1.4|
4,1,6.3|
4,2,5.3|
4,3,4.8|
4,4,7.1|
4,5,9|
4,6,9.5|
4,7,3.6|
5,0,6.6|
5,1,6.4|
5,2,5.7|
5,3,8.1|
5,4,4.9|
5,5,4|
5,6,1.7|
5,7,5.8|
6,0,1.2|
6,1,1.8|
6,2,0.89|
6,3,7.3|
6,4,5.6|
6,5,8|
6,6,6.5|
6,7,9.8|
7,0,8.5|
7,1,2.2|
7,2,5.6|
7,3,5.3|
7,4,6.8|
7,5,2.7|
7,6,3.3|
7,7,1.7|
];
constraint_x8_y8=[
0,0,1.6|
0,1,3.6|
0,2,0.27|
0,3,1.8|
0,4,9.7|
0,5,7.8|
0,6,9.2|
0,7,8.7|
1,0,8.7|
1,1,3.9|
1,2,4.9|
1,3,6.5|
1,4,7.3|
1,5,5.7|
1,6,8.7|
1,7,2.8|
2,0,2.4|
2,1,0.37|
2,2,7.3|
2,3,1.8|
2,4,9.4|
2,5,1|
2,6,4|
2,7,2.9|
3,0,6.7|
3,1,1.3|
3,2,6.2|
3,3,5.3|
3,4,7.6|
3,5,5.2|
3,6,7.9|
3,7,0.07|
4,0,9.8|
4,1,5.9|
4,2,6.9|
4,3,7.7|
4,4,5.7|
4,5,2.4|
4,6,7.9|
4,7,2.2|
5,0,8.8|
5,1,0.39|
5,2,9.7|
5,3,6.3|
5,4,0.12|
5,5,2.1|
5,6,6|
5,7,9.8|
6,0,4.4|
6,1,7.2|
6,2,5.8|
6,3,0.43|
6,4,2.3|
6,5,0.034|
6,6,3.8|
6,7,5.3|
7,0,0.94|
7,1,5.8|
7,2,3.1|
7,3,8.1|
7,4,5.6|
7,5,4.9|
7,6,0.67|
7,7,5|
];
initial_distribution_y1=[0.11,0.23,0.065,0.041,0.035,0.23,0.14,0.14];
initial_distribution_y2=[0.16,0.043,0.26,0.12,0.12,0.15,0.026,0.12];
initial_distribution_y3=[0.1,0.0045,0.021,0.095,0.17,0.19,0.19,0.22];
initial_distribution_y4=[0.058,0.15,0.14,0.074,0.023,0.21,0.24,0.11];
initial_distribution_y5=[0.019,0.22,0.13,0.025,0.055,0.17,0.16,0.22];
initial_distribution_y6=[0.21,0.016,0.2,0.09,0.0058,0.098,0.19,0.18];
initial_distribution_y7=[0.22,0.038,0.16,0.11,0.023,0.15,0.11,0.19];
initial_distribution_y8=[0.056,0.12,0.15,0.16,0.19,0.2,0.041,0.085];
transition_y1=[
0.014,0.18,0.15,0.18,0.0056,0.14,0.17,0.16|
0.12,0.038,0.074,0.25,0.087,0.23,0.16,0.042|
0.22,0.035,0.045,0.1,0.21,0.14,0.098,0.15|
0.2,0.14,0.042,0.08,0.077,0.098,0.21,0.16|
0.21,0.033,0.053,0.23,0.038,0.13,0.08,0.23|
0.18,0.22,0.062,0.089,0.22,0.01,0.18,0.037|
0.062,0.038,0.054,0.26,0.19,0.1,0.12,0.18|
0.13,0.19,0.12,0.19,0.045,0.024,0.2,0.092|
];
transition_y2=[
0.17,0.31,0.076,0.11,0.22,0.014,0.04,0.069|
0.15,0.13,0.12,0.17,0.17,0.021,0.012,0.22|
0.054,0.21,0.019,0.25,0.22,0.052,0.053,0.14|
0.03,0.24,0.098,0.071,0.23,0.19,0.14,0.011|
0.055,0.12,0.15,0.087,0.097,0.17,0.21,0.1|
0.049,0.091,0.17,0.057,0.11,0.14,0.2,0.18|
0.058,0.11,0.063,0.19,0.17,0.13,0.063,0.21|
0.13,0.16,0.014,0.038,0.14,0.14,0.2,0.17|
];
transition_y3=[
0.15,0.12,0.16,0.07,0.19,0.15,0.011,0.15|
0.07,0.043,0.19,0.16,0.17,0.1,0.097,0.17|
0.11,0.32,0.054,0.18,0.11,0.041,0.11,0.075|
0.0033,0.1,0.21,0.31,0.19,0.12,0.028,0.041|
0.12,0.11,0.17,0.18,0.15,0.17,0.04,0.046|
0.31,0.019,0.043,0.0051,0.38,0.014,0.012,0.22|
0.19,0.04,0.14,0.11,0.09,0.29,0.025,0.11|
0.075,0.18,0.0043,0.19,0.21,0.17,0.084,0.093|
];
transition_y4=[
0.058,0.16,0.032,0.27,0.1,0.15,0.14,0.09|
0.2,0.23,0.015,0.029,0.26,0.033,0.14,0.092|
0.061,0.22,0.04,0.02,0.1,0.21,0.12,0.23|
0.1,0.17,0.14,0.062,0.098,0.11,0.16,0.16|
0.16,0.12,0.18,0.2,0.2,0.0088,0.052,0.083|
0.18,0.11,0.12,0.12,0.084,0.14,0.12,0.12|
0.054,0.18,0.2,0.34,0.045,0.037,0.1,0.037|
0.081,0.15,0.2,0.18,0.12,0.16,0.084,0.033|
];
transition_y5=[
0.012,0.25,0.048,0.079,0.16,0.23,0.15,0.072|
0.041,0.08,0.11,0.19,0.044,0.091,0.17,0.28|
0.2,0.0042,0.052,0.09,0.18,0.19,0.1,0.18|
0.16,0.11,0.019,0.083,0.0093,0.2,0.21,0.21|
0.22,0.18,0.016,0.13,0.055,0.14,0.18,0.081|
0.23,0.0063,0.19,0.15,0.15,0.15,0.028,0.1|
0.094,0.16,0.082,0.19,0.075,0.1,0.2,0.1|
0.13,0.19,0.24,0.15,0.035,0.01,0.13,0.12|
];
transition_y6=[
0.21,0.1,0.058,0.03,0.25,0.073,0.16,0.12|
0.13,0.036,0.19,0.19,0.16,0.21,0.057,0.018|
0.15,0.089,0.19,0.22,0.14,0.033,0.056,0.13|
0.25,0.16,0.23,0.067,0.057,0.029,0.19,0.011|
0.11,0.084,0.048,0.18,0.033,0.19,0.14,0.21|
0.028,0.17,0.18,0.18,0.12,0.072,0.14,0.11|
0.049,0.075,0.07,0.22,0.11,0.024,0.22,0.22|
0.2,0.2,0.078,0.014,0.054,0.17,0.16,0.12|
];
transition_y7=[
0.061,0.12,0.037,0.2,0.24,0.16,0.12,0.057|
0.0061,0.091,0.23,0.12,0.17,0.014,0.21,0.15|
0.11,0.083,0.18,0.12,0.19,0.19,0.12,0.0095|
0.074,0.16,0.13,0.15,0.11,0.06,0.12,0.2|
0.13,0.032,0.1,0.16,0.21,0.093,0.19,0.075|
0.15,0.0057,0.11,0.2,0.16,0.11,0.065,0.2|
0.037,0.17,0.13,0.033,0.058,0.24,0.075,0.24|
0.17,0.2,0.048,0.085,0.15,0.26,0.074,0.013|
];
transition_y8=[
0.13,0.17,0.047,0.036,0.32,0.029,0.069,0.2|
0.13,0.23,0.052,0.07,0.055,0.21,0.044,0.21|
0.17,0.14,0.066,0.16,0.13,0.17,0.071,0.094|
0.02,0.35,0.088,0.018,0.033,0.36,0.042,0.092|
0.29,0.0085,0.021,0.1,0.046,0.1,0.29,0.14|
0.18,0.076,0.14,0.0052,0.19,0.15,0.16,0.095|
0.24,0.12,0.19,0.085,0.24,0.03,0.046,0.041|
0.058,0.18,0.064,0.068,0.057,0.28,0.064,0.23|
];
